3 
4  34 59 
5  19 29 37 45 53 
6  00 07 14 21 29 39 47 54 
7  02 09 17 24 32 39 47 54 
8  02 09 17 24 32 39 47 54 
9  02 09 17 24 32 39 47 54 
10  02 09 17 24 32 39 47 54 
11  02 09 17 24 32 39 47 54 
12  02 09 17 24 32 39 47 54 
13  02 09 17 24 32 39 47 54 
14  02 09 17 24 32 39 47 54 
15  02 09 17 24 32 39 47 54 
16  02 09 17 24 32 39 47 54 
17  02 09 17 24 32 39 47 54 
18  02 09 17 24 32 39 47 54 
19  02 09 17 24 32 39 47 56 
20  11 26 41 54 
21  09 24 39 54 
22  09 24 39 54 
23  10 
0 
